x low 4.00
p edge 92 257
n 160 1.00
n 166 1.00
n 27 1.00
n 33 1.00
n 31 1.00
n 35 1.00
n 36 1.00
n 40 1.00
n 41 1.00
n 42 1.00
n 39 1.00
n 34 1.00
n 59 1.00
n 60 1.00
n 38 1.00
n 37 1.00
n 48 1.00
n 49 1.00
n 47 1.00
n 46 1.00
n 45 1.00
n 44 1.00
n 43 1.00
n 58 1.00
n 57 1.00
n 56 1.00
n 55 1.00
n 54 1.00
n 53 1.00
n 52 1.00
n 51 1.00
n 68 1.00
n 67 1.00
n 62 1.00
n 63 1.00
n 61 1.00
n 117 1.00
n 116 1.00
n 115 1.00
n 85 1.00
n 64 1.00
n 65 1.00
n 66 1.00
n 84 1.00
n 83 1.00
n 72 1.00
n 70 1.00
n 69 1.00
n 73 1.00
n 75 1.00
n 76 1.00
n 78 1.00
n 81 1.00
n 82 1.00
n 77 1.00
n 94 1.00
n 95 1.00
n 79 1.00
n 93 1.00
n 80 1.00
n 90 1.00
n 92 1.00
n 89 1.00
n 88 1.00
n 87 1.00
n 86 1.00
n 112 1.00
n 111 1.00
n 108 1.00
n 103 1.00
n 102 1.00
n 91 1.00
n 97 1.00
n 98 1.00
n 100 1.00
n 101 1.00
n 96 1.00
n 99 1.00
n 167 1.00
n 168 1.00
n 169 1.00
n 104 1.00
n 107 1.00
n 105 1.00
n 106 1.00
n 172 1.00
n 173 1.00
n 109 1.00
n 110 1.00
n 113 1.00
n 114 1.00
n 170 1.00
e 27 160
e 27 33
e 27 31
e 31 33
e 31 35
e 31 36
e 33 40
e 33 41
e 33 42
e 33 39
e 33 34
e 33 59
e 33 60
e 33 160
e 33 35
e 34 38
e 34 39
e 34 37
e 34 35
e 35 37
e 35 36
e 36 37
e 36 48
e 36 49
e 37 38
e 37 47
e 37 48
e 38 39
e 38 46
e 38 47
e 39 45
e 39 40
e 39 46
e 40 44
e 40 41
e 40 45
e 41 43
e 41 42
e 41 44
e 42 58
e 42 59
e 42 43
e 43 57
e 43 58
e 43 56
e 43 44
e 44 56
e 44 55
e 44 45
e 45 55
e 45 54
e 45 46
e 46 54
e 46 53
e 46 47
e 47 53
e 47 52
e 47 48
e 48 52
e 48 51
e 48 49
e 49 51
e 51 52
e 51 68
e 52 53
e 52 68
e 53 54
e 53 68
e 54 55
e 54 68
e 55 56
e 55 67
e 55 68
e 56 57
e 56 67
e 57 62
e 57 63
e 57 58
e 57 67
e 58 62
e 58 61
e 58 60
e 58 59
e 59 60
e 60 61
e 60 117
e 60 160
e 61 116
e 61 115
e 61 117
e 61 85
e 61 62
e 62 64
e 62 85
e 62 63
e 63 65
e 63 64
e 63 66
e 63 67
e 64 85
e 64 84
e 64 65
e 65 83
e 65 84
e 65 72
e 65 70
e 65 66
e 66 70
e 66 69
e 66 67
e 67 69
e 67 68
e 68 69
e 69 70
e 72 83
e 72 73
e 73 75
e 73 83
e 75 78
e 75 76
e 75 81
e 75 82
e 75 83
e 76 78
e 76 77
e 77 78
e 77 94
e 77 95
e 78 79
e 78 93
e 78 94
e 78 80
e 78 81
e 79 90
e 79 92
e 79 93
e 79 89
e 79 80
e 79 88
e 80 88
e 80 81
e 81 88
e 81 87
e 81 82
e 82 87
e 82 86
e 82 83
e 83 86
e 83 84
e 84 86
e 84 85
e 85 86
e 85 115
e 86 87
e 86 112
e 86 115
e 87 88
e 87 111
e 87 112
e 88 89
e 88 108
e 88 111
e 89 90
e 89 103
e 89 108
e 90 102
e 90 91
e 90 92
e 90 103
e 91 97
e 91 98
e 91 100
e 91 92
e 91 101
e 91 102
e 92 96
e 92 97
e 92 93
e 93 95
e 93 96
e 93 94
e 94 95
e 95 96
e 95 98
e 96 98
e 96 97
e 97 98
e 98 100
e 98 99
e 99 100
e 99 167
e 99 168
e 100 168
e 100 101
e 101 168
e 101 102
e 102 168
e 102 169
e 102 104
e 102 103
e 103 104
e 103 107
e 103 108
e 104 169
e 104 105
e 104 107
e 104 106
e 105 169
e 105 172
e 105 106
e 106 172
e 106 107
e 106 173
e 106 109
e 106 110
e 106 113
e 107 108
e 107 109
e 108 109
e 108 111
e 109 111
e 109 110
e 110 111
e 110 112
e 110 113
e 111 112
e 112 113
e 112 114
e 112 115
e 113 114
e 113 173
e 114 115
e 114 116
e 114 173
e 115 116
e 116 117
e 116 173
e 116 160
e 117 160
e 160 166
e 160 170
e 160 172
e 160 173
e 166 170
e 166 167
e 167 168
e 167 169
e 167 170
e 168 169
e 169 170
e 169 172
e 170 172
e 172 173
e 166 27
e 49 68
e 72 70
e 73 76
